(set-info :source  loris-7.ddns.comp.nus.edu.sg/~project/hip/) 
;Variables declarations
(declare-fun Anon_11750 () Int)
(declare-fun c_primed () Int)
(declare-fun a_primed () Int)
(declare-fun v_node_271_3642_primed () Int)
(declare-fun cl_11774 () Int)
(declare-fun r_11748 () Int)
(declare-fun flted_262_11752 () Int)
(declare-fun nc () Int)
(declare-fun c () Int)
(declare-fun flted_262_11756 () Int)
(declare-fun na () Int)
(declare-fun a () Int)
(declare-fun flted_262_11755 () Int)
(declare-fun bh_11775 () Int)
(declare-fun n_11773 () Int)
(declare-fun h () Int)
(declare-fun flted_262_11753 () Int)
(declare-fun bhr_11751 () Int)
(declare-fun bhl_11747 () Int)
(declare-fun Anon_11746 () Int)
(declare-fun nb () Int)
(declare-fun nr_11749 () Int)
(declare-fun nl_11745 () Int)
(declare-fun v_node_271_3643_primed () Int)
(declare-fun cl () Int)
(declare-fun bh () Int)
(declare-fun n () Int)
(declare-fun l_11744 () Int)
;Relations declarations
;Axioms assertions
;Antecedent
(assert (<= cl_11774 1))
(assert (<= 0 cl_11774))
(assert (= cl_11774 0))
(assert (<= Anon_11750 1))
(assert (<= 0 Anon_11750))
(assert (= cl_11774 Anon_11750))
(assert (= flted_262_11752 0))
(assert (= flted_262_11756 0))
(assert (= c_primed c))
(assert (= a_primed a))
(assert (= v_node_271_3642_primed r_11748))
(assert (or (and (and (and (= cl_11774 0) (<= 2 bh_11775)) (<= 1 n_11773)) (> r_11748 0)) (or (and (and (and (< r_11748 1) (= n_11773 0)) (= bh_11775 1)) (= cl_11774 0)) (and (and (and (= cl_11774 1) (<= 1 bh_11775)) (<= 1 n_11773)) (> r_11748 0)))))
(assert (or (and (and (and (= flted_262_11752 0) (<= 2 h)) (<= 1 nc)) (> c 0)) (or (and (and (and (< c 1) (= nc 0)) (= h 1)) (= flted_262_11752 0)) (and (and (and (= flted_262_11752 1) (<= 1 h)) (<= 1 nc)) (> c 0)))))
(assert (or (and (and (and (= flted_262_11756 0) (<= 2 flted_262_11755)) (<= 1 na)) (> a 0)) (or (and (and (and (< a 1) (= na 0)) (= flted_262_11755 1)) (= flted_262_11756 0)) (and (and (and (= flted_262_11756 1) (<= 1 flted_262_11755)) (<= 1 na)) (> a 0)))))
(assert (= flted_262_11755 (+ 1 h)))
(assert (<= 1 bh_11775))
(assert (<= 0 n_11773))
(assert (<= 1 bhr_11751))
(assert (<= 0 nr_11749))
(assert (= bh_11775 bhr_11751))
(assert (= n_11773 nr_11749))
(assert (= flted_262_11753 (+ 1 h)))
(assert (= flted_262_11753 (+ bhl_11747 1)))
(assert (= bhl_11747 bhr_11751))
(assert (<= cl 1))
(assert (<= 0 cl))
(assert (<= 1 bh))
(assert (= cl 0))
(assert (<= Anon_11746 1))
(assert (<= 0 Anon_11746))
(assert (<= 1 bhl_11747))
(assert (<= 0 nl_11745))
(assert (= bh bhl_11747))
(assert (= cl Anon_11746))
(assert (= nb (+ (+ nr_11749 1) nl_11745)))
(assert (= n nl_11745))
(assert (<= 0 n))
(assert (= v_node_271_3643_primed l_11744))
(assert (or (and (and (and (= cl 0) (<= 2 bh)) (<= 1 n)) (> l_11744 0)) (or (and (and (and (< l_11744 1) (= n 0)) (= bh 1)) (= cl 0)) (and (and (and (= cl 1) (<= 1 bh)) (<= 1 n)) (> l_11744 0)))))
;Negation of Consequence
(assert (not (or (= n 0) (< l_11744 1))))
(check-sat)